50, 62425
376, 2551
771, 2552
583, 2553
432, 2554
141, 2555
746, 2556
267, 2557
151, 2558
562, 2559
174, 2560
476, 2561
39, 2562
190, 2563
510, 2564
125, 2565
793, 2566
345, 2567
83, 2568
442, 2569
572, 2570
318, 2571
655, 2572
701, 2573
561, 2574
257, 2575
697, 2576
317, 2577
48, 2578
8, 2579
965, 2580
78, 2581
5, 2582
756, 2583
870, 2584
773, 2585
623, 2586
70, 2587
622, 2588
915, 2589
693, 2590
772, 2591
322, 2592
279, 2593
545, 2594
435, 2595
48, 2596
454, 2597
326, 2598
204, 2599
825, 2600
